projected/problems_b25_r0_d7_m100_s666/_DIMACS/b25_d7_r0_s666_052.cnf
p cnf 194 288 25
c p show 1 2 3 4 5 6 7 8 9 10 11 12 13 14 15 16 17 18 19 20 21 22 23 24 25
-26 -6 10 0
-27 -10 -13 0
-28 27 0
-28 26 0
-29 -24 -15 0
-30 -17 0
-30 -16 0
-31 30 0
-31 29 0
-32 31 0
-32 28 0
-33 -10 -24 0
-34 -10 0
-34 5 0
-35 34 33 0
-36 7 24 0
-37 14 -10 0
-38 37 36 0
-39 -14 0
-39 10 0
-40 -7 0
-40 -24 0
-41 40 39 0
-42 41 0
-42 38 0
-43 42 35 0
-44 43 0
-44 32 0
-45 -13 -9 0
-46 5 -18 0
-47 46 0
-47 45 0
-48 3 -13 0
-49 -3 -18 0
-50 49 48 0
-51 50 47 0
-52 -20 20 0
-53 -8 0
-53 8 0
-54 53 52 0
-55 -12 21 0
-56 16 -1 0
-57 56 0
-57 55 0
-58 57 0
-58 54 0
-59 58 51 0
-60 59 0
-60 44 0
-61 -16 -17 0
-62 24 17 0
-63 62 0
-63 61 0
-64 20 -7 0
-65 16 0
-65 19 0
-66 65 0
-66 64 0
-67 66 0
-67 63 0
-68 -20 0
-68 7 0
-69 -16 -19 0
-70 69 68 0
-71 16 0
-71 17 0
-72 -24 0
-72 -17 0
-73 72 71 0
-74 73 0
-74 70 0
-75 74 67 0
-76 15 0
-76 -5 0
-77 -2 -17 0
-78 77 76 0
-79 -22 0
-79 -8 0
-80 -10 0
-80 -12 0
-81 80 0
-81 79 0
-82 81 0
-82 78 0
-83 82 75 0
-84 -12 0
-84 11 0
-85 3 0
-85 10 0
-86 85 84 0
-87 4 -22 0
-88 1 0
-88 -18 0
-89 88 87 0
-90 89 86 0
-91 9 0
-91 24 0
-92 24 -19 0
-93 92 91 0
-94 -12 -1 0
-95 18 -6 0
-96 95 94 0
-97 96 93 0
-98 97 90 0
-99 98 0
-99 83 0
-100 99 0
-100 60 0
-101 -18 0
-101 -3 0
-102 9 0
-102 2 0
-103 102 0
-103 101 0
-104 -9 -2 0
-105 18 3 0
-106 105 0
-106 104 0
-107 106 103 0
-108 -7 -5 0
-109 -8 -14 0
-110 109 0
-110 108 0
-111 110 107 0
-112 -10 0
-112 -15 0
-113 7 -21 0
-114 113 112 0
-115 -2 0
-115 -13 0
-116 22 0
-116 3 0
-117 116 115 0
-118 117 114 0
-119 2 13 0
-120 -22 -3 0
-121 120 0
-121 119 0
-122 10 15 0
-123 -7 0
-123 21 0
-124 123 0
-124 122 0
-125 124 121 0
-126 125 0
-126 118 0
-127 126 0
-127 111 0
-128 121 0
-128 124 0
-129 114 0
-129 117 0
-130 129 128 0
-131 104 105 0
-132 101 102 0
-133 132 0
-133 131 0
-134 7 0
-134 5 0
-135 8 0
-135 14 0
-136 135 134 0
-137 136 0
-137 133 0
-138 137 0
-138 130 0
-139 138 127 0
-140 -6 1 0
-141 -3 0
-141 24 0
-142 141 0
-142 140 0
-143 -8 4 0
-144 21 0
-144 18 0
-145 144 0
-145 143 0
-146 145 142 0
-147 7 8 0
-148 -25 19 0
-149 148 147 0
-150 14 13 0
-151 -1 0
-151 -19 0
-152 151 150 0
-153 152 0
-153 149 0
-154 153 146 0
-155 154 0
-155 139 0
-156 16 0
-156 13 0
-157 -17 0
-157 12 0
-158 157 156 0
-159 1 -11 0
-160 -2 0
-160 -7 0
-161 160 0
-161 159 0
-162 161 0
-162 158 0
-163 -22 6 0
-164 18 2 0
-165 164 163 0
-166 12 -18 0
-167 13 0
-167 -19 0
-168 167 166 0
-169 168 0
-169 165 0
-170 169 0
-170 162 0
-171 -24 0
-171 -23 0
-172 -15 -12 0
-173 172 171 0
-174 15 0
-174 12 0
-175 24 23 0
-176 175 174 0
-177 176 0
-177 173 0
-178 -8 1 0
-179 -2 3 0
-180 179 0
-180 178 0
-181 180 0
-181 177 0
-182 -22 13 0
-183 119 0
-183 182 0
-184 -4 0
-184 -21 0
-185 24 -23 0
-186 185 0
-186 184 0
-187 -24 0
-187 23 0
-188 4 21 0
-189 188 0
-189 187 0
-190 189 186 0
-191 190 183 0
-192 191 181 0
-193 192 0
-193 170 0
-194 193 0
-194 155 0
194 0
100 0
-37 -39 0
-39 -37 0
-40 -36 0
-36 -40 0
-64 -68 0
-65 -69 0
-66 -70 0
-71 -61 0
-61 -71 0
-62 -72 0
-63 -73 0
-73 -63 0
-115 -119 0
-116 -120 0
-117 -121 0
-121 -117 0
-122 -112 0
-123 -113 0
-124 -114 0
-114 -124 0
-126 -130 0
-102 -104 0
-101 -105 0
-105 -101 0
-133 -107 0
-108 -134 0
-109 -135 0
-110 -136 0
-136 -110 0
-137 -111 0
-172 -174 0
-174 -172 0
-171 -175 0
-187 -185 0
-185 -187 0
-184 -188 0
-188 -184 0
