projected/problems_b25_r0_d7_m100_s666/b25_d7_r0_s666_052.smt2
(set-logic QF_UF)
(declare-fun A0 () Bool)
(declare-fun A1 () Bool)
(declare-fun A2 () Bool)
(declare-fun A3 () Bool)
(declare-fun A4 () Bool)
(declare-fun A5 () Bool)
(declare-fun A6 () Bool)
(declare-fun A7 () Bool)
(declare-fun A8 () Bool)
(declare-fun A9 () Bool)
(declare-fun A10 () Bool)
(declare-fun A11 () Bool)
(declare-fun A12 () Bool)
(declare-fun A13 () Bool)
(declare-fun A14 () Bool)
(declare-fun A15 () Bool)
(declare-fun A16 () Bool)
(declare-fun A17 () Bool)
(declare-fun A18 () Bool)
(declare-fun A19 () Bool)
(declare-fun A20 () Bool)
(declare-fun A21 () Bool)
(declare-fun A22 () Bool)
(declare-fun A23 () Bool)
(declare-fun A24 () Bool)
(assert (let ((.def_0 (not A5))) (let ((.def_1 (or .def_0 A9))) (let ((.def_2 (not .def_1))) (let ((.def_3 (not A12))) (let ((.def_4 (not A9))) (let ((.def_5 (or .def_4 .def_3))) (let ((.def_6 (not .def_5))) (let ((.def_7 (or .def_6 .def_2))) (let ((.def_8 (not .def_7))) (let ((.def_9 (and A23 A14))) (let ((.def_10 (not .def_9))) (let ((.def_11 (or A16 A15))) (let ((.def_12 (not .def_11))) (let ((.def_13 (and .def_12 .def_10))) (let ((.def_14 (and .def_13 .def_8))) (let ((.def_15 (not A23))) (let ((.def_16 (or .def_4 .def_15))) (let ((.def_17 (not .def_16))) (let ((.def_18 (and .def_4 A4))) (let ((.def_19 (not .def_18))) (let ((.def_20 (and .def_19 .def_17))) (let ((.def_21 (or A13 .def_4))) (let ((.def_22 (not .def_21))) (let ((.def_23 (not A6))) (let ((.def_24 (and .def_23 .def_15))) (let ((.def_25 (not .def_24))) (let ((.def_26 (= .def_25 .def_22))) (let ((.def_27 (not .def_26))) (let ((.def_28 (and .def_27 .def_20))) (let ((.def_29 (not .def_28))) (let ((.def_30 (and .def_29 .def_14))) (let ((.def_31 (and A12 A8))) (let ((.def_32 (not A17))) (let ((.def_33 (or A4 .def_32))) (let ((.def_34 (not .def_33))) (let ((.def_35 (or .def_34 .def_31))) (let ((.def_36 (not A2))) (let ((.def_37 (and .def_36 A12))) (let ((.def_38 (or .def_36 .def_32))) (let ((.def_39 (not .def_38))) (let ((.def_40 (and .def_39 .def_37))) (let ((.def_41 (and .def_40 .def_35))) (let ((.def_42 (not .def_41))) (let ((.def_43 (not A19))) (let ((.def_44 (and A19 .def_43))) (let ((.def_45 (not .def_44))) (let ((.def_46 (not A7))) (let ((.def_47 (or A7 .def_46))) (let ((.def_48 (not .def_47))) (let ((.def_49 (or .def_48 .def_45))) (let ((.def_50 (not A20))) (let ((.def_51 (and A11 .def_50))) (let ((.def_52 (not A0))) (let ((.def_53 (or A15 .def_52))) (let ((.def_54 (not .def_53))) (let ((.def_55 (or .def_54 .def_51))) (let ((.def_56 (not .def_55))) (let ((.def_57 (and .def_56 .def_49))) (let ((.def_58 (or .def_57 .def_42))) (let ((.def_59 (and .def_58 .def_30))) (let ((.def_60 (not .def_59))) (let ((.def_61 (or A19 .def_23))) (let ((.def_62 (and A15 A18))) (let ((.def_63 (and .def_62 .def_61))) (let ((.def_64 (and A15 A16))) (let ((.def_65 (not .def_64))) (let ((.def_66 (or A23 A16))) (let ((.def_67 (and .def_66 .def_65))) (let ((.def_68 (not .def_67))) (let ((.def_69 (= .def_68 .def_63))) (let ((.def_70 (not A4))) (let ((.def_71 (and A14 .def_70))) (let ((.def_72 (not A16))) (let ((.def_73 (not A1))) (let ((.def_74 (or .def_73 .def_72))) (let ((.def_75 (or .def_74 .def_71))) (let ((.def_76 (not .def_75))) (let ((.def_77 (or A21 A7))) (let ((.def_78 (not .def_77))) (let ((.def_79 (or A9 A11))) (let ((.def_80 (not .def_79))) (let ((.def_81 (and .def_80 .def_78))) (let ((.def_82 (not .def_81))) (let ((.def_83 (or .def_82 .def_76))) (let ((.def_84 (and .def_83 .def_69))) (let ((.def_85 (not .def_84))) (let ((.def_86 (not A10))) (let ((.def_87 (or A11 .def_86))) (let ((.def_88 (and A2 A9))) (let ((.def_89 (not .def_88))) (let ((.def_90 (and .def_89 .def_87))) (let ((.def_91 (not A3))) (let ((.def_92 (and .def_91 A21))) (let ((.def_93 (and A0 .def_32))) (let ((.def_94 (not .def_93))) (let ((.def_95 (and .def_94 .def_92))) (let ((.def_96 (and .def_95 .def_90))) (let ((.def_97 (not A8))) (let ((.def_98 (or .def_97 .def_15))) (let ((.def_99 (not .def_98))) (let ((.def_100 (not A18))) (let ((.def_101 (or A23 .def_100))) (let ((.def_102 (or .def_101 .def_99))) (let ((.def_103 (not .def_102))) (let ((.def_104 (and A11 A0))) (let ((.def_105 (and .def_32 A5))) (let ((.def_106 (and .def_105 .def_104))) (let ((.def_107 (and .def_106 .def_103))) (let ((.def_108 (and .def_107 .def_96))) (let ((.def_109 (not .def_108))) (let ((.def_110 (and .def_109 .def_85))) (let ((.def_111 (not .def_110))) (let ((.def_112 (or .def_111 .def_60))) (let ((.def_113 (not .def_112))) (let ((.def_114 (and .def_73 .def_3))) (let ((.def_115 (and A21 A2))) (let ((.def_116 (or .def_115 .def_114))) (let ((.def_117 (not .def_116))) (let ((.def_118 (or A9 A14))) (let ((.def_119 (and .def_23 A20))) (let ((.def_120 (and .def_119 .def_118))) (let ((.def_121 (not .def_120))) (let ((.def_122 (= .def_121 .def_117))) (let ((.def_123 (and A8 A1))) (let ((.def_124 (and .def_32 .def_36))) (let ((.def_125 (not .def_124))) (let ((.def_126 (= .def_125 .def_123))) (let ((.def_127 (or .def_23 .def_70))) (let ((.def_128 (not A13))) (let ((.def_129 (or .def_46 .def_128))) (let ((.def_130 (and .def_129 .def_127))) (let ((.def_131 (not .def_130))) (let ((.def_132 (and .def_131 .def_126))) (let ((.def_133 (= .def_132 .def_122))) (let ((.def_134 (not .def_133))) (let ((.def_135 (and A5 .def_52))) (let ((.def_136 (not .def_135))) (let ((.def_137 (and .def_36 A23))) (let ((.def_138 (and .def_137 .def_136))) (let ((.def_139 (and A7 .def_91))) (let ((.def_140 (not .def_139))) (let ((.def_141 (and A20 A17))) (let ((.def_142 (and .def_141 .def_140))) (let ((.def_143 (or .def_142 .def_138))) (let ((.def_144 (or A6 A7))) (let ((.def_145 (not A24))) (let ((.def_146 (or .def_145 A18))) (let ((.def_147 (or .def_146 .def_144))) (let ((.def_148 (or A13 A12))) (let ((.def_149 (not .def_148))) (let ((.def_150 (and .def_52 .def_100))) (let ((.def_151 (not .def_150))) (let ((.def_152 (and .def_151 .def_149))) (let ((.def_153 (not .def_152))) (let ((.def_154 (and .def_153 .def_147))) (let ((.def_155 (or .def_154 .def_143))) (let ((.def_156 (and .def_155 .def_134))) (let ((.def_157 (and A15 A12))) (let ((.def_158 (not .def_157))) (let ((.def_159 (and .def_72 A11))) (let ((.def_160 (not .def_159))) (let ((.def_161 (and .def_160 .def_158))) (let ((.def_162 (and .def_52 A10))) (let ((.def_163 (not .def_162))) (let ((.def_164 (or A1 A6))) (let ((.def_165 (not .def_164))) (let ((.def_166 (and .def_165 .def_163))) (let ((.def_167 (not .def_166))) (let ((.def_168 (or .def_167 .def_161))) (let ((.def_169 (not A21))) (let ((.def_170 (or .def_169 A5))) (let ((.def_171 (not .def_170))) (let ((.def_172 (and .def_32 .def_73))) (let ((.def_173 (and .def_172 .def_171))) (let ((.def_174 (not .def_173))) (let ((.def_175 (not A11))) (let ((.def_176 (and .def_175 A17))) (let ((.def_177 (not .def_176))) (let ((.def_178 (or .def_3 A18))) (let ((.def_179 (not .def_178))) (let ((.def_180 (or .def_179 .def_177))) (let ((.def_181 (and .def_180 .def_174))) (let ((.def_182 (not .def_181))) (let ((.def_183 (or .def_182 .def_168))) (let ((.def_184 (not A14))) (let ((.def_185 (or .def_184 .def_175))) (let ((.def_186 (not .def_185))) (let ((.def_187 (not A22))) (let ((.def_188 (and .def_15 .def_187))) (let ((.def_189 (= .def_188 .def_186))) (let ((.def_190 (and A7 .def_52))) (let ((.def_191 (and A1 .def_36))) (let ((.def_192 (or .def_191 .def_190))) (let ((.def_193 (not .def_192))) (let ((.def_194 (and .def_193 .def_189))) (let ((.def_195 (or .def_169 A12))) (let ((.def_196 (or A1 A12))) (let ((.def_197 (and .def_196 .def_195))) (let ((.def_198 (and .def_15 A22))) (let ((.def_199 (not .def_198))) (let ((.def_200 (and .def_91 .def_50))) (let ((.def_201 (not .def_200))) (let ((.def_202 (= .def_201 .def_199))) (let ((.def_203 (not .def_202))) (let ((.def_204 (or .def_203 .def_197))) (let ((.def_205 (or .def_204 .def_194))) (let ((.def_206 (not .def_205))) (let ((.def_207 (or .def_206 .def_183))) (let ((.def_208 (not .def_207))) (let ((.def_209 (and .def_208 .def_156))) (let ((.def_210 (and .def_209 .def_113))) .def_210))))))))))))))))))))))))))))))))))))))))))))))))))))))))))))))))))))))))))))))))))))))))))))))))))))))))))))))))))))))))))))))))))))))))))))))))))))))))))))))))))))))))))))))))))))))))))))))))))))))))))))))))))))
(check-sat)
